%%%mzn-stat: initTime=0.009717566
%%%mzn-stat: objective=352
%%%mzn-stat: nodes=36998
%%%mzn-stat: restarts=0
%%%mzn-stat: peakDepth=401
%%%mzn-stat: solveTime=1.531045376
%%%mzn-stat: variables=886
%%%mzn-stat: propagators=623
%%%mzn-stat: failures=5950
%%%mzn-stat: propagations=314446
%%%mzn-stat: nogoods=5950
%%%mzn-stat: AverageConflictSize=20.385882352941177
%%%mzn-stat: NumUnitNogoodsLearned=351
%%%mzn-stat: AverageLearnedNogoodLength=23.798991596638654
%%%mzn-stat: AverageBacktrackAmount=0
%%%mzn-stat: AverageLbd=15.993613445378152
%%%mzn-stat-end
maxleg = 352;
succ = array1d(1..50,[6, 1, 34, 19, 42, 47, 20, 38, 25, 21, 18, 8, 45, 16, 23, 48, 2, 5, 32, 44, 29, 40, 31, 22, 4, 17, 14, 13, 46, 39, 26, 27, 30, 12, 3, 50, 36, 24, 10, 37, 7, 9, 35, 11, 15, 49, 33, 43, 41, 28]);
% time elapsed: 3.32 s
----------
==========
% time elapsed: 3.32 s
%%%mzn-stat: initTime=0.009717566
%%%mzn-stat: objective=352
%%%mzn-stat: nodes=36998
%%%mzn-stat: restarts=0
%%%mzn-stat: peakDepth=401
%%%mzn-stat: solveTime=1.531050282
%%%mzn-stat: variables=886
%%%mzn-stat: propagators=623
%%%mzn-stat: failures=5950
%%%mzn-stat: propagations=314446
%%%mzn-stat: nogoods=5950
%%%mzn-stat: AverageConflictSize=20.385882352941177
%%%mzn-stat: NumUnitNogoodsLearned=351
%%%mzn-stat: AverageLearnedNogoodLength=23.798991596638654
%%%mzn-stat: AverageBacktrackAmount=0
%%%mzn-stat: AverageLbd=15.993613445378152
%%%mzn-stat-end
